p wcnf 192 111 264
228 1 0
138 2 0
117 3 0
222 4 0
234 5 0
138 6 0
150 7 0
237 8 0
132 9 0
249 10 0
159 11 0
246 12 0
246 13 0
252 14 0
132 15 0
162 16 0
201 17 0
84 18 0
210 19 0
105 20 0
234 21 0
240 22 0
114 23 0
165 24 0
129 25 0
222 26 0
129 27 0
246 28 0
138 29 0
225 30 0
249 31 0
141 32 0
162 33 0
225 34 0
234 35 0
240 36 0
243 37 0
240 38 0
222 39 0
228 40 0
228 41 0
243 42 0
228 43 0
234 44 0
228 45 0
249 46 0
225 47 0
237 48 0
234 49 0
243 50 0
237 51 0
228 52 0
213 53 0
225 54 0
222 55 0
219 56 0
153 57 0
246 58 0
216 59 0
225 60 0
210 61 0
237 62 0
228 63 0
237 64 0
213 65 0
228 66 0
225 67 0
174 68 0
231 69 0
249 70 0
252 71 0
255 72 0
261 73 0
246 74 0
255 75 0
252 76 0
258 77 0
234 78 0
216 79 0
246 80 0
216 81 0
231 82 0
228 83 0
240 84 0
234 85 0
198 86 0
249 87 0
252 88 0
255 89 0
126 90 0
261 91 0
231 92 0
240 93 0
231 94 0
201 95 0
243 96 0
249 97 0
243 98 0
228 99 0
255 100 0
225 101 0
231 102 0
261 103 0
261 104 0
144 105 0
135 106 0
213 107 0
231 108 0
111 109 0
129 110 0
231 111 0
150 112 0
228 113 0
144 114 0
240 115 0
237 116 0
237 117 0
165 118 0
159 119 0
249 120 0
153 121 0
258 122 0
165 123 0
258 124 0
264 125 0
177 126 0
156 127 0
186 128 0
243 129 0
135 130 0
255 131 0
159 132 0
252 133 0
258 134 0
147 135 0
171 136 0
252 137 0
240 138 0
153 139 0
255 140 0
159 141 0
240 142 0
249 143 0
126 144 0
141 145 0
258 146 0
171 147 0
252 148 0
246 149 0
156 150 0
264 151 0
258 152 0
180 153 0
168 154 0
207 155 0
99 156 0
219 157 0
123 158 0
222 159 0
171 160 0
234 161 0
135 162 0
150 163 0
207 164 0
108 165 0
216 166 0
129 167 0
210 168 0
225 169 0
105 170 0
180 171 0
138 172 0
237 173 0
120 174 0
246 175 0
132 176 0
234 177 0
243 178 0
120 179 0
129 180 0
246 181 0
228 182 0
150 183 0
246 184 0
141 185 0
255 186 0
252 187 0
162 188 0
156 189 0
207 190 0
102 191 0
216 192 0
228 1 4 5 13 17 19 26 30 34 35 36 37 38 39 40 41 42 43 44 45 46 47 48 49 50 51 79 101 107 108 111 113 115 116 117 138 149 155 157 159 161 164 166 168 169 182 190 192 0
228 2 3 6 7 18 20 24 27 32 52 53 54 55 56 57 58 59 60 61 62 63 64 65 66 67 68 69 90 105 106 109 110 112 114 118 119 127 156 158 160 162 163 165 167 170 171 172 191 0
228 8 10 12 14 21 22 28 31 70 71 72 73 74 75 76 77 87 88 89 91 96 97 100 103 120 122 124 125 129 131 133 134 137 140 142 143 146 148 151 152 173 175 177 178 181 184 186 187 0
228 9 11 15 16 23 25 29 33 78 80 81 82 83 84 85 86 92 93 94 95 98 99 102 104 121 123 126 128 130 132 135 136 139 141 144 145 147 150 153 154 174 176 179 180 183 185 188 189 0
228 1 2 13 24 34 35 36 37 38 39 40 41 42 46 52 53 54 55 57 61 62 65 67 68 105 116 127 138 149 155 156 157 158 159 160 161 162 163 164 165 166 167 168 169 170 171 172 182 0
228 3 4 5 6 7 17 18 19 20 26 27 30 32 43 44 45 47 48 49 50 51 56 58 59 60 63 64 66 69 79 90 101 106 107 108 109 110 111 112 113 114 115 117 118 119 190 191 192 0
228 8 9 10 11 12 14 15 16 21 22 23 25 28 29 31 33 87 88 89 91 92 93 94 95 96 97 98 99 100 102 103 104 129 130 131 132 133 134 135 136 142 143 144 145 148 150 152 154 0
228 70 71 72 73 74 75 76 77 78 80 81 82 83 84 85 86 120 121 122 123 124 125 126 128 137 139 140 141 146 147 151 153 173 174 175 176 177 178 179 180 181 183 184 185 186 187 188 189 0
228 1 3 4 5 6 7 34 36 37 38 43 44 48 50 52 53 54 55 56 58 59 60 79 90 101 105 106 111 112 115 116 118 127 138 149 155 156 157 158 159 160 161 162 163 171 190 191 192 0
228 2 13 17 18 19 20 24 26 27 30 32 35 39 40 41 42 45 46 47 49 51 57 61 62 63 64 65 66 67 68 69 107 108 109 110 113 114 117 119 164 165 166 167 168 169 170 172 182 0
228 8 9 10 11 12 14 15 16 70 71 72 73 78 80 83 85 87 88 89 91 92 93 94 95 120 121 122 123 124 125 126 128 129 130 131 132 133 134 135 136 173 174 175 176 181 183 186 188 0
228 21 22 23 25 28 29 31 33 74 75 76 77 81 82 84 86 96 97 98 99 100 102 103 104 137 139 140 141 142 143 144 145 146 147 148 150 151 152 153 154 177 178 179 180 184 185 187 189 0
228 1 2 3 17 18 19 20 34 35 36 39 41 43 44 45 47 52 53 56 57 59 61 62 63 64 79 90 101 105 106 107 108 109 110 116 127 155 156 157 158 164 165 168 170 182 190 191 192 0
228 4 5 6 7 13 24 26 27 30 32 37 38 40 42 46 48 49 50 51 54 55 58 60 65 66 67 68 69 111 112 113 114 115 117 118 119 138 149 159 160 161 162 163 166 167 169 171 172 0
228 8 9 12 15 21 22 23 25 70 71 74 76 78 80 81 82 87 88 92 94 96 97 98 99 120 121 122 123 129 130 133 135 137 139 140 141 142 143 144 145 173 174 175 176 177 178 179 180 0
228 10 11 14 16 28 29 31 33 72 73 75 77 83 84 85 86 89 91 93 95 100 102 103 104 124 125 126 128 131 132 134 136 146 147 148 150 151 152 153 154 181 183 184 185 186 187 188 189 0
228 1 2 4 6 13 17 18 24 26 27 34 37 39 40 43 45 48 49 52 54 56 58 61 63 65 66 79 90 105 107 109 111 112 113 114 138 155 156 159 160 162 164 165 166 167 182 190 191 0
228 3 5 7 19 20 30 32 35 36 38 41 42 44 46 47 50 51 53 55 57 59 60 62 64 67 68 69 101 106 108 110 115 116 117 118 119 127 149 157 158 161 163 168 169 170 171 172 192 0
228 8 9 10 11 21 23 28 29 70 72 74 75 78 81 83 84 87 89 92 93 96 98 100 102 120 121 124 126 129 130 131 132 137 139 142 144 146 147 148 150 173 174 177 179 181 183 184 185 0
228 12 14 15 16 22 25 31 33 71 73 76 77 80 82 85 86 88 91 94 95 97 99 103 104 122 123 125 128 133 134 135 136 140 141 143 145 151 152 153 154 175 176 178 180 186 187 188 189 0
228 1 2 13 24 34 35 36 37 38 39 40 41 42 43 44 45 46 47 48 49 50 51 52 53 54 55 56 57 58 59 60 61 62 63 64 65 66 67 68 69 79 90 101 105 106 107 108 109 110 111 112 113 114 115 116 117 118 119 127 138 149 160 171 182 0
228 3 4 5 6 7 17 18 19 20 26 27 30 32 155 156 157 158 159 161 162 163 164 165 166 167 168 169 170 172 190 191 192 0
228 8 9 10 11 12 14 15 16 21 22 23 25 28 29 31 33 173 174 175 176 177 178 179 180 181 183 184 185 186 187 188 189 0
228 70 71 72 73 74 75 76 77 78 80 81 82 83 84 85 86 87 88 89 91 92 93 94 95 96 97 98 99 100 102 103 104 120 121 122 123 124 125 126 128 129 130 131 132 133 134 135 136 137 139 140 141 142 143 144 145 146 147 148 150 151 152 153 154 0
228 1 2 3 4 5 6 7 13 17 18 19 20 24 26 27 30 32 35 46 57 68 79 90 101 105 106 107 108 109 110 111 112 113 114 115 116 117 118 119 127 138 149 155 156 157 158 159 160 161 162 163 164 165 166 167 168 169 170 171 172 182 190 191 192 0
228 8 9 10 11 12 14 15 16 21 22 23 25 28 29 31 33 120 121 122 123 124 125 126 128 129 130 131 132 133 134 135 136 137 139 140 141 142 143 144 145 146 147 148 150 151 152 153 154 173 174 175 176 177 178 179 180 181 183 184 185 186 187 188 189 0
228 34 36 37 38 39 40 41 42 43 44 45 47 48 49 50 51 52 53 54 55 56 58 59 60 61 62 63 64 65 66 67 69 0
228 70 71 72 73 74 75 76 77 78 80 81 82 83 84 85 86 87 88 89 91 92 93 94 95 96 97 98 99 100 102 103 104 0
228 1 13 34 35 36 37 38 39 40 41 42 46 70 71 72 73 74 75 76 77 116 120 122 124 125 137 138 140 146 149 151 155 157 159 161 164 166 168 169 173 175 177 178 181 182 184 186 187 0
228 2 24 52 53 54 55 57 61 62 65 67 68 78 80 81 82 83 84 85 86 105 121 123 126 127 128 139 141 147 153 156 158 160 162 163 165 167 170 171 172 174 176 179 180 183 185 188 189 0
228 3 6 7 9 11 15 16 18 20 23 25 27 29 32 33 56 58 59 60 63 64 66 69 90 92 93 94 95 98 99 102 104 106 109 110 112 114 118 119 130 132 135 136 144 145 150 154 191 0
228 4 5 8 10 12 14 17 19 21 22 26 28 30 31 43 44 45 47 48 49 50 51 79 87 88 89 91 96 97 100 101 103 107 108 111 113 115 117 129 131 133 134 142 143 148 152 190 192 0
228 1 4 5 8 10 12 14 34 36 37 38 43 44 48 50 70 71 72 73 79 87 88 89 91 101 111 115 116 120 122 124 125 129 131 133 134 138 149 155 157 159 161 173 175 181 186 190 192 0
228 2 18 20 23 24 25 27 29 32 33 57 61 62 63 64 65 66 67 68 69 81 82 84 86 98 99 102 104 109 110 114 119 139 141 144 145 147 150 153 154 165 167 170 172 179 180 185 189 0
228 3 6 7 9 11 15 16 52 53 54 55 56 58 59 60 78 80 83 85 90 92 93 94 95 105 106 112 118 121 123 126 127 128 130 132 135 136 156 158 160 162 163 171 174 176 183 188 191 0
228 13 17 19 21 22 26 28 30 31 35 39 40 41 42 45 46 47 49 51 74 75 76 77 96 97 100 103 107 108 113 117 137 140 142 143 146 148 151 152 164 166 168 169 177 178 182 184 187 0
228 1 8 12 17 19 21 22 34 35 36 39 41 43 44 45 47 70 71 74 76 79 87 88 96 97 101 107 108 116 120 122 129 133 137 140 142 143 155 157 164 168 173 175 177 178 182 190 192 0
228 2 3 9 15 18 20 23 25 52 53 56 57 59 61 62 63 64 78 80 81 82 90 92 94 98 99 105 106 109 110 121 123 127 130 135 139 141 144 145 156 158 165 170 174 176 179 180 191 0
228 4 5 10 13 14 26 28 30 31 37 38 40 42 46 48 49 50 51 72 73 75 77 89 91 100 103 111 113 115 117 124 125 131 134 138 146 148 149 151 152 159 161 166 169 181 184 186 187 0
228 6 7 11 16 24 27 29 32 33 54 55 58 60 65 66 67 68 69 83 84 85 86 93 95 102 104 112 114 118 119 126 128 132 136 147 150 153 154 160 162 163 167 171 172 183 185 188 189 0
228 1 4 8 10 13 17 21 26 28 34 37 39 40 43 45 48 49 70 72 74 75 79 87 89 96 100 107 111 113 120 124 129 131 137 138 142 146 148 155 159 164 166 173 177 181 182 184 190 0
228 2 6 9 11 18 23 24 27 29 52 54 56 58 61 63 65 66 78 81 83 84 90 92 93 98 102 105 109 112 114 121 126 130 132 139 144 147 150 156 160 162 165 167 174 179 183 185 191 0
228 3 7 15 16 20 25 32 33 53 55 57 59 60 62 64 67 68 69 80 82 85 86 94 95 99 104 106 110 118 119 123 127 128 135 136 141 145 153 154 158 163 170 171 172 176 180 188 189 0
228 5 12 14 19 22 30 31 35 36 38 41 42 44 46 47 50 51 71 73 76 77 88 91 97 101 103 108 115 116 117 122 125 133 134 140 143 149 151 152 157 161 168 169 175 178 186 187 192 0
228 1 13 34 35 36 37 38 39 40 41 42 43 44 45 46 47 48 49 50 51 70 71 72 73 74 75 76 77 79 87 88 89 91 96 97 100 101 103 107 108 111 113 115 116 117 120 122 124 125 129 131 133 134 137 138 140 142 143 146 148 149 151 152 182 0
228 2 24 52 53 54 55 56 57 58 59 60 61 62 63 64 65 66 67 68 69 78 80 81 82 83 84 85 86 90 92 93 94 95 98 99 102 104 105 106 109 110 112 114 118 119 121 123 126 127 128 130 132 135 136 139 141 144 145 147 150 153 154 160 171 0
228 3 6 7 9 11 15 16 18 20 23 25 27 29 32 33 156 158 162 163 165 167 170 172 174 176 179 180 183 185 188 189 191 0
228 4 5 8 10 12 14 17 19 21 22 26 28 30 31 155 157 159 161 164 166 168 169 173 175 177 178 181 184 186 187 190 192 0
228 1 4 5 8 10 12 13 14 17 19 21 22 26 28 30 31 35 46 79 101 107 108 111 113 115 116 117 120 122 124 125 129 131 133 134 137 138 140 142 143 146 148 149 151 152 155 157 159 161 164 166 168 169 173 175 177 178 181 182 184 186 187 190 192 0
228 2 3 6 7 9 11 15 16 18 20 23 24 25 27 29 32 33 57 68 90 105 106 109 110 112 114 118 119 121 123 126 127 128 130 132 135 136 139 141 144 145 147 150 153 154 156 158 160 162 163 165 167 170 171 172 174 176 179 180 183 185 188 189 191 0
228 34 36 37 38 39 40 41 42 43 44 45 47 48 49 50 51 70 71 72 73 74 75 76 77 87 88 89 91 96 97 100 103 0
228 52 53 54 55 56 58 59 60 61 62 63 64 65 66 67 69 78 80 81 82 83 84 85 86 92 93 94 95 98 99 102 104 0
228 1 34 36 37 38 52 53 54 55 70 71 72 73 78 80 83 85 105 116 120 121 122 123 124 125 126 127 128 138 149 155 156 157 158 159 160 161 162 163 171 173 174 175 176 181 183 186 188 0
228 2 13 24 35 39 40 41 42 46 57 61 62 65 67 68 74 75 76 77 81 82 84 86 137 139 140 141 146 147 151 153 164 165 166 167 168 169 170 172 177 178 179 180 182 184 185 187 189 0
228 3 4 5 6 7 8 9 10 11 12 14 15 16 43 44 48 50 56 58 59 60 79 87 88 89 90 91 92 93 94 95 101 106 111 112 115 118 129 130 131 132 133 134 135 136 190 191 192 0
228 17 18 19 20 21 22 23 25 26 27 28 29 30 31 32 33 45 47 49 51 63 64 66 69 96 97 98 99 100 102 103 104 107 108 109 110 113 114 117 119 142 143 144 145 148 150 152 154 0
228 1 2 34 35 36 39 41 52 53 57 61 62 70 71 74 76 78 80 81 82 105 116 120 121 122 123 127 137 139 140 141 155 156 157 158 164 165 168 170 173 174 175 176 177 178 179 180 182 0
228 3 8 9 12 15 17 18 19 20 21 22 23 25 43 44 45 47 56 59 63 64 79 87 88 90 92 94 96 97 98 99 101 106 107 108 109 110 129 130 133 135 142 143 144 145 190 191 192 0
228 4 5 6 7 10 11 14 16 26 27 28 29 30 31 32 33 48 49 50 51 58 60 66 69 89 91 93 95 100 102 103 104 111 112 113 114 115 117 118 119 131 132 134 136 148 150 152 154 0
228 13 24 37 38 40 42 46 54 55 65 67 68 72 73 75 77 83 84 85 86 124 125 126 128 138 146 147 149 151 153 159 160 161 162 163 166 167 169 171 172 181 183 184 185 186 187 188 189 0
228 1 2 13 24 34 37 39 40 52 54 61 65 70 72 74 75 78 81 83 84 105 120 121 124 126 137 138 139 146 147 155 156 159 160 162 164 165 166 167 173 174 177 179 181 182 183 184 185 0
228 3 5 7 12 14 15 16 19 20 22 25 30 31 32 33 44 47 50 51 59 60 64 69 88 91 94 95 97 99 101 103 104 106 108 110 115 117 118 119 133 134 135 136 143 145 152 154 192 0
228 4 6 8 9 10 11 17 18 21 23 26 27 28 29 43 45 48 49 56 58 63 66 79 87 89 90 92 93 96 98 100 102 107 109 111 112 113 114 129 130 131 132 142 144 148 150 190 191 0
228 35 36 38 41 42 46 53 55 57 62 67 68 71 73 76 77 80 82 85 86 116 122 123 125 127 128 140 141 149 151 153 157 158 161 163 168 169 170 171 172 175 176 178 180 186 187 188 189 0
228 1 2 13 24 34 35 36 37 38 39 40 41 42 46 52 53 54 55 57 61 62 65 67 68 70 71 72 73 74 75 76 77 78 80 81 82 83 84 85 86 105 116 120 121 122 123 124 125 126 127 128 137 138 139 140 141 146 147 149 151 153 160 171 182 0
228 3 4 5 6 7 8 9 10 11 12 14 15 16 17 18 19 20 21 22 23 25 26 27 28 29 30 31 32 33 190 191 192 0
228 43 44 45 47 48 49 50 51 56 58 59 60 63 64 66 69 79 87 88 89 90 91 92 93 94 95 96 97 98 99 100 101 102 103 104 106 107 108 109 110 111 112 113 114 115 117 118 119 129 130 131 132 133 134 135 136 142 143 144 145 148 150 152 154 0
228 155 156 157 158 159 161 162 163 164 165 166 167 168 169 170 172 173 174 175 176 177 178 179 180 181 183 184 185 186 187 188 189 0
228 1 2 13 24 35 46 57 68 105 116 120 121 122 123 124 125 126 127 128 137 138 139 140 141 146 147 149 151 153 155 156 157 158 159 160 161 162 163 164 165 166 167 168 169 170 171 172 173 174 175 176 177 178 179 180 181 182 183 184 185 186 187 188 189 0
228 3 4 5 6 7 8 9 10 11 12 14 15 16 17 18 19 20 21 22 23 25 26 27 28 29 30 31 32 33 79 90 101 106 107 108 109 110 111 112 113 114 115 117 118 119 129 130 131 132 133 134 135 136 142 143 144 145 148 150 152 154 190 191 192 0
228 34 36 37 38 39 40 41 42 52 53 54 55 61 62 65 67 70 71 72 73 74 75 76 77 78 80 81 82 83 84 85 86 0
228 43 44 45 47 48 49 50 51 56 58 59 60 63 64 66 69 87 88 89 91 92 93 94 95 96 97 98 99 100 102 103 104 0
228 1 3 8 9 12 15 34 36 43 44 52 53 56 59 70 71 78 79 80 87 88 90 92 94 101 105 106 116 120 121 122 123 127 129 130 133 135 155 156 157 158 173 174 175 176 190 191 192 0
228 2 17 18 19 20 21 22 23 25 35 39 41 45 47 57 61 62 63 64 74 76 81 82 96 97 98 99 107 108 109 110 137 139 140 141 142 143 144 145 164 165 168 170 177 178 179 180 182 0
228 4 5 6 7 10 11 14 16 37 38 48 50 54 55 58 60 72 73 83 85 89 91 93 95 111 112 115 118 124 125 126 128 131 132 134 136 138 149 159 160 161 162 163 171 181 183 186 188 0
228 13 24 26 27 28 29 30 31 32 33 40 42 46 49 51 65 66 67 68 69 75 77 84 86 100 102 103 104 113 114 117 119 146 147 148 150 151 152 153 154 166 167 169 172 184 185 187 189 0
228 1 4 6 8 9 10 11 34 37 43 48 52 54 56 58 70 72 78 79 83 87 89 90 92 93 105 111 112 120 121 124 126 129 130 131 132 138 155 156 159 160 162 173 174 181 183 190 191 0
228 2 13 17 18 21 23 24 26 27 28 29 39 40 45 49 61 63 65 66 74 75 81 84 96 98 100 102 107 109 113 114 137 139 142 144 146 147 148 150 164 165 166 167 177 179 182 184 185 0
228 3 5 7 12 14 15 16 36 38 44 50 53 55 59 60 71 73 80 85 88 91 94 95 101 106 115 116 118 122 123 125 127 128 133 134 135 136 149 157 158 161 163 171 175 176 186 188 192 0
228 19 20 22 25 30 31 32 33 35 41 42 46 47 51 57 62 64 67 68 69 76 77 82 86 97 99 103 104 108 110 117 119 140 141 143 145 151 152 153 154 168 169 170 172 178 180 187 189 0
228 1 34 36 37 38 43 44 48 50 52 53 54 55 56 58 59 60 70 71 72 73 78 79 80 83 85 87 88 89 90 91 92 93 94 95 101 105 106 111 112 115 116 118 120 121 122 123 124 125 126 127 128 129 130 131 132 133 134 135 136 138 149 160 171 0
228 2 13 24 35 39 40 41 42 45 46 47 49 51 57 61 62 63 64 65 66 67 68 69 74 75 76 77 81 82 84 86 96 97 98 99 100 102 103 104 107 108 109 110 113 114 117 119 137 139 140 141 142 143 144 145 146 147 148 150 151 152 153 154 182 0
228 3 4 5 6 7 8 9 10 11 12 14 15 16 155 156 157 158 159 161 162 163 173 174 175 176 181 183 186 188 190 191 192 0
228 17 18 19 20 21 22 23 25 26 27 28 29 30 31 32 33 164 165 166 167 168 169 170 172 177 178 179 180 184 185 187 189 0
228 1 3 4 5 6 7 8 9 10 11 12 14 15 16 79 90 101 105 106 111 112 115 116 118 120 121 122 123 124 125 126 127 128 129 130 131 132 133 134 135 136 138 149 155 156 157 158 159 160 161 162 163 171 173 174 175 176 181 183 186 188 190 191 192 0
228 2 13 17 18 19 20 21 22 23 24 25 26 27 28 29 30 31 32 33 35 46 57 68 107 108 109 110 113 114 117 119 137 139 140 141 142 143 144 145 146 147 148 150 151 152 153 154 164 165 166 167 168 169 170 172 177 178 179 180 182 184 185 187 189 0
228 34 36 37 38 43 44 48 50 52 53 54 55 56 58 59 60 70 71 72 73 78 80 83 85 87 88 89 91 92 93 94 95 0
228 39 40 41 42 45 47 49 51 61 62 63 64 65 66 67 69 74 75 76 77 81 82 84 86 96 97 98 99 100 102 103 104 0
228 1 2 8 9 17 18 21 23 34 39 43 45 52 56 61 63 70 74 78 79 81 87 90 92 96 98 105 107 109 120 121 129 130 137 139 142 144 155 156 164 165 173 174 177 179 182 190 191 0
228 3 12 15 19 20 22 25 35 36 41 44 47 53 57 59 62 64 71 76 80 82 88 94 97 99 101 106 108 110 116 122 123 127 133 135 140 141 143 145 157 158 168 170 175 176 178 180 192 0
228 4 6 10 11 13 24 26 27 28 29 37 40 48 49 54 58 65 66 72 75 83 84 89 93 100 102 111 112 113 114 124 126 131 132 138 146 147 148 150 159 160 162 166 167 181 183 184 185 0
228 5 7 14 16 30 31 32 33 38 42 46 50 51 55 60 67 68 69 73 77 85 86 91 95 103 104 115 117 118 119 125 128 134 136 149 151 152 153 154 161 163 169 171 172 186 187 188 189 0
228 1 2 34 35 36 39 41 43 44 45 47 52 53 56 57 59 61 62 63 64 70 71 74 76 78 79 80 81 82 87 88 90 92 94 96 97 98 99 101 105 106 107 108 109 110 116 120 121 122 123 127 129 130 133 135 137 139 140 141 142 143 144 145 182 0
228 3 8 9 12 15 17 18 19 20 21 22 23 25 155 156 157 158 164 165 168 170 173 174 175 176 177 178 179 180 190 191 192 0
228 4 5 6 7 10 11 14 16 26 27 28 29 30 31 32 33 159 161 162 163 166 167 169 172 181 183 184 185 186 187 188 189 0
228 13 24 37 38 40 42 46 48 49 50 51 54 55 58 60 65 66 67 68 69 72 73 75 77 83 84 85 86 89 91 93 95 100 102 103 104 111 112 113 114 115 117 118 119 124 125 126 128 131 132 134 136 138 146 147 148 149 150 151 152 153 154 160 171 0
228 1 2 3 8 9 12 15 17 18 19 20 21 22 23 25 35 57 79 90 101 105 106 107 108 109 110 116 120 121 122 123 127 129 130 133 135 137 139 140 141 142 143 144 145 155 156 157 158 164 165 168 170 173 174 175 176 177 178 179 180 182 190 191 192 0
228 4 5 6 7 10 11 13 14 16 24 26 27 28 29 30 31 32 33 46 68 111 112 113 114 115 117 118 119 124 125 126 128 131 132 134 136 138 146 147 148 149 150 151 152 153 154 159 160 161 162 163 166 167 169 171 172 181 183 184 185 186 187 188 189 0
228 34 36 39 41 43 44 45 47 52 53 56 59 61 62 63 64 70 71 74 76 78 80 81 82 87 88 92 94 96 97 98 99 0
228 37 38 40 42 48 49 50 51 54 55 58 60 65 66 67 69 72 73 75 77 83 84 85 86 89 91 93 95 100 102 103 104 0
228 1 2 13 24 34 37 39 40 43 45 48 49 52 54 56 58 61 63 65 66 70 72 74 75 78 79 81 83 84 87 89 90 92 93 96 98 100 102 105 107 109 111 112 113 114 120 121 124 126 129 130 131 132 137 138 139 142 144 146 147 148 150 160 182 0
228 3 5 7 12 14 15 16 19 20 22 25 30 31 32 33 157 158 161 163 168 169 170 172 175 176 178 180 186 187 188 189 192 0
228 4 6 8 9 10 11 17 18 21 23 26 27 28 29 155 156 159 162 164 165 166 167 173 174 177 179 181 183 184 185 190 191 0
228 35 36 38 41 42 44 46 47 50 51 53 55 57 59 60 62 64 67 68 69 71 73 76 77 80 82 85 86 88 91 94 95 97 99 101 103 104 106 108 110 115 116 117 118 119 122 123 125 127 128 133 134 135 136 140 141 143 145 149 151 152 153 154 171 0
228 1 2 4 6 8 9 10 11 13 17 18 21 23 24 26 27 28 29 79 90 105 107 109 111 112 113 114 120 121 124 126 129 130 131 132 137 138 139 142 144 146 147 148 150 155 156 159 160 162 164 165 166 167 173 174 177 179 181 182 183 184 185 190 191 0
228 3 5 7 12 14 15 16 19 20 22 25 30 31 32 33 35 46 57 68 101 106 108 110 115 116 117 118 119 122 123 125 127 128 133 134 135 136 140 141 143 145 149 151 152 153 154 157 158 161 163 168 169 170 171 172 175 176 178 180 186 187 188 189 192 0
228 34 37 39 40 43 45 48 49 52 54 56 58 61 63 65 66 70 72 74 75 78 81 83 84 87 89 92 93 96 98 100 102 0
228 36 38 41 42 44 47 50 51 53 55 59 60 62 64 67 69 71 73 76 77 80 82 85 86 88 91 94 95 97 99 103 104 0
228 1 2 13 24 35 46 57 68 79 90 101 105 106 107 108 109 110 111 112 113 114 115 116 117 118 119 120 121 122 123 124 125 126 127 128 129 130 131 132 133 134 135 136 137 138 139 140 141 142 143 144 145 146 147 148 149 150 151 152 153 154 160 171 182 0
228 3 4 5 6 7 8 9 10 11 12 14 15 16 17 18 19 20 21 22 23 25 26 27 28 29 30 31 32 33 155 156 157 158 159 161 162 163 164 165 166 167 168 169 170 172 173 174 175 176 177 178 179 180 181 183 184 185 186 187 188 189 190 191 192 0
228 34 36 37 38 39 40 41 42 43 44 45 47 48 49 50 51 52 53 54 55 56 58 59 60 61 62 63 64 65 66 67 69 70 71 72 73 74 75 76 77 78 80 81 82 83 84 85 86 87 88 89 91 92 93 94 95 96 97 98 99 100 102 103 104 0
